Version identifier: 22.1.0.0 | 2022-03-09 | 1a383f8ce
CPXPARAM_Threads                                 1
CPXPARAM_MIP_Strategy_VariableSelect             3
CPXPARAM_TimeLimit                               599.99997776099997
1 of 1 MIP starts provided solutions.
MIP start 'm1' defined initial solution with objective 23.0000.
Tried aggregator 1 time.
MIP Presolve eliminated 18 rows and 0 columns.
MIP Presolve modified 50 coefficients.
Reduced MIP has 4503 rows, 10500 columns, and 231569 nonzeros.
Reduced MIP has 10500 binaries, 0 generals, 0 SOSs, and 0 indicators.
Presolve time = 0.23 sec. (377.56 ticks)
Probing time = 0.03 sec. (28.55 ticks)
Tried aggregator 1 time.
Detecting symmetries...
MIP Presolve modified 15 coefficients.
Reduced MIP has 4503 rows, 10500 columns, and 231746 nonzeros.
Reduced MIP has 10500 binaries, 0 generals, 0 SOSs, and 0 indicators.
Presolve time = 0.23 sec. (355.15 ticks)
Probing time = 0.03 sec. (28.56 ticks)
Clique table members: 3240.
MIP emphasis: balance optimality and feasibility.
MIP search method: dynamic search.
Parallel mode: none, using 1 thread.
Root relaxation solution time = 116.48 sec. (138865.14 ticks)

        Nodes                                         Cuts/
   Node  Left     Objective  IInf  Best Integer    Best Bound    ItCnt     Gap

*     0+    0                           23.0000   125250.0000              --- 
      0     0      500.0000  2069       23.0000      500.0000   142430     --- 
*     0+    0                          283.0000      500.0000            76.68%
      0     0      500.0000   118      283.0000    Cliques: 2   145509   76.68%
*     0+    0                          500.0000      500.0000             0.00%
      0     0        cutoff            500.0000      500.0000   145509    0.00%
Elapsed time = 176.01 sec. (204559.89 ticks, tree = 0.01 MB, solutions = 3)

Clique cuts applied:  2

Root node processing (before b&c):
  Real time             =  176.01 sec. (204561.11 ticks)
Sequential b&c:
  Real time             =    0.00 sec. (0.00 ticks)
                          ------------
Total (root+branch&cut) =  176.01 sec. (204561.11 ticks)
Primal:	500
Dual:	500
Status:	Optimal
Time:	176.07
Sequence:
	15
	16
	7
	15
	0
	7
	15
	16
	0
	15
	0
	2
	15
	6
	7
	15
	16
	0
	15
	0
	16
	15
	7
	7
	14
	9
	1
	14
	8
	18
	5
	9
	13
	5
	8
	18
	14
	7
	9
	14
	1
	8
	5
	18
	11
	5
	13
	11
	12
	13
	9
	12
	13
	11
	5
	18
	19
	5
	1
	8
	14
	1
	9
	14
	1
	8
	14
	1
	9
	14
	1
	9
	14
	2
	9
	10
	6
	9
	10
	2
	8
	17
	6
	9
	10
	6
	7
	15
	7
	16
	15
	0
	6
	15
	7
	7
	15
	16
	7
	15
	7
	16
	15
	0
	7
	15
	7
	7
	15
	16
	0
	15
	6
	7
	15
	16
	0
	15
	6
	2
	15
	0
	16
	17
	9
	16
	17
	2
	19
	17
	0
	19
	5
	18
	19
	5
	18
	4
	3
	10
	4
	3
	10
	4
	3
	10
	4
	0
	17
	19
	2
	17
	11
	6
	10
	9
	2
	17
	19
	2
	17
	19
	0
	10
	3
	4
	10
	3
	4
	14
	3
	18
	5
	8
	1
	14
	8
	7
	17
	11
	7
	10
	8
	6
	10
	9
	2
	17
	11
	16
	17
	0
	4
	14
	18
	8
	7
	17
	4
	3
	14
	1
	11
	14
	1
	8
	5
	18
	8
	5
	13
	9
	5
	18
	8
	14
	1
	9
	14
	1
	11
	14
	1
	9
	12
	18
	3
	14
	4
	1
	14
	9
	1
	14
	11
	1
	14
	9
	1
	14
	8
	18
	5
	9
	18
	12
	11
	13
	5
	9
	18
	12
	19
	1
	5
	19
	18
	5
	9
	13
	12
	11
	13
	5
	11
	13
	12
	0
	19
	17
	2
	19
	17
	7
	16
	15
	0
	0
	15
	7
	0
	15
	2
	0
	17
	16
	4
	10
	16
	4
	10
	3
	4
	10
	3
	4
	17
	16
	8
	17
	16
	9
	7
	10
	9
	2
	17
	19
	0
	10
	4
	3
	10
	4
	2
	17
	19
	2
	17
	9
	7
	10
	8
	16
	17
	4
	3
	10
	4
	3
	10
	7
	16
	15
	0
	7
	15
	16
	7
	15
	0
	16
	15
	0
	0
	15
	6
	2
	15
	6
	2
	17
	2
	19
	17
	2
	9
	10
	2
	9
	12
	13
	8
	12
	13
	9
	5
	18
	8
	14
	1
	9
	5
	18
	19
	5
	18
	9
	12
	1
	19
	12
	1
	19
	5
	18
	19
	5
	18
	3
	14
	1
	3
	14
	18
	8
	5
	13
	2
	5
	11
	13
	5
	8
	18
	14
	3
	1
	14
	8
	18
	5
	9
	18
	12
	8
	13
	5
	11
	13
	12
	11
	13
	5
	3
	18
	14
	8
	1
	5
	11
	13
	12
	11
	13
	5
	8
	18
	14
	4
	3
	14
	4
	3
	16
	17
	8
	7
	10
	6
	11
	10
	7
	11
	17
	2
	9
	10
	6
	11
	10
	7
	11
	17
	16
	11
	5
	1
	19
	5
	18
	8
	5
	13
	8
	5
	13
	11
	12
	13
	9
	12
	13
	9
	12
	13
	11
	12
	13
	11
	5
	16
	0
	15
	2
	6
	15
	7
	16
	15
